Nb of jobs, Nb of Machines, Time seed, Machine seed, Upper bound, Lower bound
5,5,-1,-1,-1,-1
Times
25,23,41,41,28
94,15,10,22,71
3,32,88,83,91
49,39,81,31,36
47,38,86,9,74
Machines
4,3,2,5,1
3,4,1,5,2
3,2,5,4,1
5,1,3,2,4
5,2,3,1,4
